/* Objective function */
Min: 1.08 x11 + 1.095 x12+ 1.11 x13 +1.125x14 + 1500 x21 +1.11 x22+ 1.125 x23 + 1.140 x240 +1500 x31+ 1500 x32 + 1.1 x33 +1.115 x34 +1500 x41 +1500 x42+1500 x43  +1.13 x44;


/* Constraints */
x11+x12 +x13 +x14+x15 =25;
x21 +x22 +x23+ x24 +x25 =35;
x31 +x32 +x33 +x34 +x35 =30;
x41 +x42 +x43 +x44 +x45 =10;

x11 +x21 +x31+x41 =10;
x12 +x22 +x32 +x42 =15;
x13 +x23 +x33 +x43 =25;
x14 +x24 +x34 +x44 =20;
x15 +x25+ x35 +x45 =30;
